
Gurobi 13.0.2 (win64) logging started Thu Jul 23 18:35:10 2026

Set parameter LogFile to value "E:\codes\ExactEBRP\results\gf_gurobi_performance_recovery_round29\runs\stage4__high_imbalance_seed5202__c4_candidate__rep1__300s\external\native_logs\L1.1.0.0.1.1.0.0.1_terminal_mip.gurobi.log"
Gurobi Optimizer version 13.0.2 build v13.0.2rc1 (win64 - Windows 10.0 (19045.2))

CPU model: 12th Gen Intel(R) Core(TM) i7-12700KF, instruction set [SSE2|AVX|AVX2]
Thread count: 12 physical cores, 20 logical processors, using up to 1 threads

Non-default parameters:
TimeLimit  2.6800780629999997e+02
MIPGap  0
MIPGapAbs  0
LogToConsole  0
Threads  1

Optimize a model with 11923 rows, 3380 columns and 67410 nonzeros (Min)
Model fingerprint: 0xb77b0e78
Model has 21 linear objective coefficients
Variable types: 1687 continuous, 1693 integer (1493 binary)
Coefficient statistics:
  Matrix range     [2e-02, 2e+04]
  Objective range  [2e-02, 1e+00]
  Bounds range     [4e-01, 7e+02]
  RHS range        [4e-01, 5e+04]

Presolve removed 1699 rows and 64 columns
Presolve time: 0.18s
Presolved: 10224 rows, 3316 columns, 74573 nonzeros
Variable types: 1641 continuous, 1675 integer (1496 binary)

Root relaxation: objective 1.017139e+00, 3504 iterations, 0.17 seconds (0.48 work units)

    Nodes    |    Current Node    |     Objective Bounds      |     Work
 Expl Unexpl |  Obj  Depth IntInf | Incumbent    BestBd   Gap | It/Node Time

     0     0    1.01714    0  218          -    1.01714      -     -    0s
     0     0    1.05219    0  228          -    1.05219      -     -    0s
     0     0    1.07880    0  306          -    1.07880      -     -    1s
     0     0    1.07925    0  293          -    1.07925      -     -    1s
     0     0    1.08831    0  299          -    1.08831      -     -    1s
     0     0    1.08866    0  291          -    1.08866      -     -    1s
     0     0    1.09017    0  318          -    1.09017      -     -    2s
     0     0    1.09045    0  319          -    1.09045      -     -    3s
     0     0    1.09381    0  339          -    1.09381      -     -    3s
     0     0    1.09431    0  338          -    1.09431      -     -    3s
     0     0    1.09496    0  351          -    1.09496      -     -    4s
     0     0    1.09634    0  353          -    1.09634      -     -    4s
     0     0    1.09777    0  300          -    1.09777      -     -    5s
     0     0    1.09804    0  348          -    1.09804      -     -    5s
     0     0    1.09831    0  335          -    1.09831      -     -    5s
     0     0    1.09838    0  344          -    1.09838      -     -    5s
     0     0    1.09859    0  369          -    1.09859      -     -    6s
     0     0    1.09866    0  365          -    1.09866      -     -    6s
     0     0    1.09927    0  318          -    1.09927      -     -    7s
     0     0    1.09957    0  362          -    1.09957      -     -    7s
     0     0    1.09977    0  386          -    1.09977      -     -    7s
     0     0    1.09986    0  369          -    1.09986      -     -    8s
     0     0    1.10036    0  375          -    1.10036      -     -    8s
     0     0    1.10045    0  371          -    1.10045      -     -    8s
     0     0    1.10053    0  363          -    1.10053      -     -    9s
     0     0    1.10059    0  361          -    1.10059      -     -    9s
     0     0    1.10085    0  336          -    1.10085      -     -   10s
     0     0    1.10089    0  346          -    1.10089      -     -   10s
     0     0    1.10118    0  359          -    1.10118      -     -   11s
     0     0    1.10126    0  388          -    1.10126      -     -   11s
     0     0    1.10137    0  385          -    1.10137      -     -   12s
     0     0    1.10142    0  379          -    1.10142      -     -   12s
     0     0    1.10149    0  401          -    1.10149      -     -   13s
     0     0    1.10151    0  391          -    1.10151      -     -   13s
     0     0    1.10162    0  387          -    1.10162      -     -   14s
     0     0    1.10166    0  376          -    1.10166      -     -   14s
     0     0    1.10174    0  411          -    1.10174      -     -   15s
     0     0    1.10175    0  394          -    1.10175      -     -   15s
     0     0    1.10180    0  402          -    1.10180      -     -   15s
     0     0    1.10183    0  394          -    1.10183      -     -   15s
     0     0    1.10184    0  376          -    1.10184      -     -   16s
     0     0    1.10184    0  376          -    1.10184      -     -   16s
     0     0    1.10184    0  365          -    1.10184      -     -   16s
     0     2    1.10184    0  364          -    1.10184      -     -   17s
     3     5    1.10735    2  276          -    1.10184      -   811   20s
    24    24    1.11366   16  267          -    1.10184      -  1164   25s
    39    38    1.11762   27  211          -    1.10184      -   923   30s
   226   217    1.12328    7  225          -    1.10241      -   323   35s
   341   331    1.12834  118  213          -    1.10241      -   265   40s
   500   474    1.13058  138  254          -    1.10276      -   215   45s
   543   498    1.13296  112  345          -    1.10374      -   216   51s
   547   500    1.12727   87  324          -    1.10374      -   214   56s
   550   502    1.12802  163  360          -    1.10374      -   213   60s
   554   505    1.13078  107  376          -    1.10520      -   212   66s
   558   508    1.12518   37  332          -    1.10584      -   210   71s
   562   510    1.12647  101  352          -    1.10613      -   209   76s
   565   512    1.12548   55  428          -    1.10630      -   207   80s
   570   516    1.10704   10  377          -    1.10656      -   206   86s
   577   520    1.12522   45  412          -    1.10658      -   203   90s
   583   526    1.11331   17  316          -    1.10666      -   328   96s
   587   529    1.11592   19  312          -    1.10987      -   339  100s
   593   533    1.11606   22  291          -    1.10987      -   346  105s
   599   535    1.11623   25  288          -    1.10987      -   349  110s
   634   542    1.11543   19  243          -    1.10993      -   376  115s
   668   549    1.12731   36  259          -    1.10993      -   386  120s
   705   548    1.14086   26  196          -    1.11299      -   397  128s
   712   550    1.14210   30  164          -    1.11299      -   395  130s
   746   553    1.13272   26  227          -    1.11596      -   419  135s
   809   547    1.11598   22  293          -    1.11598      -   413  140s
   846   556    1.14941   41  165          -    1.11761      -   426  145s
   895   551    1.14025   35  210          -    1.11830      -   436  150s
   950   578    1.12255   19  224          -    1.11830      -   419  157s
   966   587    1.13234   28  191          -    1.11830      -   425  160s
  1058   642    1.15049  107  149          -    1.11830      -   405  165s
  1140   675    1.13663   30  232          -    1.11902      -   394  170s
  1177   681    1.12568   29  256          -    1.11994      -   393  175s
  1216   687    1.15118   34  212          -    1.12055      -   406  180s
  1277   684    1.14974   27  204          -    1.12079      -   412  185s
  1312   685    1.13651   30  232          -    1.12131      -   422  193s
  1313   686    1.14167   31  221          -    1.12131      -   422  195s
  1372   701    1.14478   46  193          -    1.12144      -   418  200s
  1429   727    1.14247   45  175          -    1.12149      -   417  205s
  1484   736 infeasible   28               -    1.12168      -   422  210s
  1530   743    1.12493   22  291          -    1.12187      -   423  215s
  1582   751 infeasible   34               -    1.12244      -   424  220s
  1651   771    1.14656   49  134          -    1.12310      -   421  225s
  1726   785    1.12737   24  282          -    1.12448      -   416  230s
  1768   791    1.14036   29  169          -    1.12448      -   419  235s
  1837   793    1.13207   26  225          -    1.12464      -   420  240s
  1892   808    1.14590   28  302          -    1.12466      -   422  245s
  1932   805    1.13588   34  250          -    1.12569      -   427  250s
  1967   812    1.14302   35  206          -    1.12576      -   429  255s
  2013   807    1.13682   32  214          -    1.12657      -   431  260s
  2075   791 infeasible   24               -    1.12675      -   433  265s

Cutting planes:
  Learned: 13
  Cover: 39
  Implied bound: 91
  Projected implied bound: 17
  Clique: 17
  MIR: 113
  StrongCG: 5
  Flow cover: 200
  GUB cover: 6
  Network: 22
  RLT: 5
  Relax-and-lift: 20

Explored 2108 nodes (975780 simplex iterations) in 268.01 seconds (517.97 work units)
Thread count was 1 (of 20 available processors)

Solution count 0

Time limit reached
Best objective -, best bound 1.126805522187e+00, gap -

User-callback calls 65184, time in user-callback 0.01 sec
